RT is False
Default write of storage_offers_DA.csv just to have a file (but constraint should be inactive)
Reading model...
...model read.
creating competitive generators file...
...competitive generators recorded.
Loading data...
.. day-ahead data read.
Compiling instance...
...instance created.
Creating Offer Mitigation (model will solve as dispatch if TRUE)...
...storage offer mitigation file created
Converting model to MPEC...
...converted
NOTE: initial MIP solve with only storage competitive to get feasible solution
Solving...

Welcome to IBM(R) ILOG(R) CPLEX(R) Interactive Optimizer 12.10.0.0
  with Simplex, Mixed Integer & Barrier Optimizers
5725-A06 5725-A29 5724-Y48 5724-Y49 5724-Y54 5724-Y55 5655-Y21
Copyright IBM Corp. 1988, 2019.  All Rights Reserved.

Type 'help' for a list of available commands.
Type 'help' followed by a command name for more
information on commands.

CPLEX> Logfile 'cplex.log' closed.
Logfile 'C:\Users\wenmi\Desktop\competitiveMPEC\logs\tmpruwrv1ba.cplex.log' open.
CPLEX> New value for parallel optimization mode: -1
CPLEX> New value for mixed integer optimality gap tolerance: 0.05
CPLEX> New value for deterministic time limit in ticks: 100000
CPLEX> Problem 'C:\Users\wenmi\Desktop\competitiveMPEC\logs\tmphmgr7r5i.pyomo.lp' read.
Read time = 0.14 sec. (14.50 ticks)
CPLEX> Problem name         : C:\Users\wenmi\Desktop\competitiveMPEC\logs\tmphmgr7r5i.pyomo.lp
Objective sense      : Maximize
Variables            :   53803  [Nneg: 1,  Box: 21998,  Free: 4464,
                                 Binary: 27340]
Objective nonzeros   :    9087
Linear constraints   :  123205  [Less: 41346,  Greater: 59096,  Equal: 22763]
  Nonzeros           :  289292
  RHS nonzeros       :   67476

Variables            : Min LB: -5000.000        Max UB: 1000000.       
Objective nonzeros   : Min   : 0.1000000        Max   : 2500.000       
Linear constraints   :
  Nonzeros           : Min   : 0.1000000        Max   : 1000000.       
  RHS nonzeros       : Min   : 0.1000000        Max   : 1000000.       
CPLEX> Version identifier: 12.10.0.0 | 2019-11-26 | 843d4de2ae
CPXPARAM_Parallel                                -1
CPXPARAM_DetTimeLimit                            100000
CPXPARAM_MIP_Tolerances_MIPGap                   0.050000000000000003
Tried aggregator 3 times.
MIP Presolve eliminated 88757 rows and 19069 columns.
MIP Presolve added 3385 rows and 0 columns.
MIP Presolve modified 24786 coefficients.
Aggregator did 12993 substitutions.
Reduced MIP has 24840 rows, 21175 columns, and 68358 nonzeros.
Reduced MIP has 8371 binaries, 0 generals, 0 SOSs, and 0 indicators.
Presolve time = 0.16 sec. (168.73 ticks)
Probing fixed 403 vars, tightened 3843 bounds.
Probing time = 0.03 sec. (17.54 ticks)
Tried aggregator 2 times.
Detecting symmetries...
MIP Presolve eliminated 909 rows and 807 columns.
MIP Presolve modified 3140 coefficients.
Aggregator did 24 substitutions.
Reduced MIP has 23907 rows, 20344 columns, and 65656 nonzeros.
Reduced MIP has 7968 binaries, 0 generals, 0 SOSs, and 0 indicators.
Presolve time = 0.06 sec. (90.77 ticks)
Probing fixed 0 vars, tightened 292 bounds.
Probing time = 0.06 sec. (21.27 ticks)
Clique table members: 44297.
MIP emphasis: balance optimality and feasibility.
MIP search method: dynamic search.
Parallel mode: opportunistic, using up to 16 threads.
Root relaxation solution time = 0.30 sec. (626.21 ticks)

        Nodes                                         Cuts/
   Node  Left     Objective  IInf  Best Integer    Best Bound    ItCnt     Gap

      0     0     7529.4395    94                   7529.4395     5482         
      0     0     7529.4395    94                    Cuts: 17     5489         
      0     0     7529.4395    94                     Cuts: 4     5496         
      0     0     7365.3680    94                    Cuts: 16     5514         
      0     0     6536.2582    94                    Cuts: 19     5534         
      0     0     6327.7184    94                     Cuts: 3     5551         
      0     0     6183.6121    94                    Cuts: 30     5573         
      0     0     6183.6121    94                     Cuts: 3     5574         
*     0+    0                         4671.7246     6183.6121            32.36%

Cover cuts applied:  1
Implied bound cuts applied:  2
Flow cuts applied:  18
Mixed integer rounding cuts applied:  9
Gomory fractional cuts applied:  2

Root node processing (before b&c):
  Real time             =    3.42 sec. (3241.56 ticks)
Parallel b&c, 16 threads:
  Real time             =    0.00 sec. (0.00 ticks)
  Sync time (average)   =    0.00 sec.
  Wait time (average)   =    0.00 sec.
                          ------------
Total (root+branch&cut) =    3.42 sec. (3241.56 ticks)

Solution pool: 1 solution saved.

MIP - Integer optimal, tolerance (0.05/1e-06):  Objective =  4.6717245515e+03
Current MIP best bound =  4.8865354054e+03 (gap = 214.811, 4.60%)
Solution time =    3.42 sec.  Iterations = 5574  Nodes = 0 (1)
Deterministic time = 3241.72 ticks  (947.32 ticks/sec)

CPLEX> Incumbent solution written to file 'C:\Users\wenmi\Desktop\competitiveMPEC\logs\tmp65ud0s7z.cplex.sol'.
CPLEX> NOTE: no warmstart specified for MIP iteration, default behavior is true
NOTE: resolving with all competitive generators using storage-only solution to warmstart
Solving...

Welcome to IBM(R) ILOG(R) CPLEX(R) Interactive Optimizer 12.10.0.0
  with Simplex, Mixed Integer & Barrier Optimizers
5725-A06 5725-A29 5724-Y48 5724-Y49 5724-Y54 5724-Y55 5655-Y21
Copyright IBM Corp. 1988, 2019.  All Rights Reserved.

Type 'help' for a list of available commands.
Type 'help' followed by a command name for more
information on commands.

CPLEX> Logfile 'cplex.log' closed.
Logfile 'C:\Users\wenmi\Desktop\competitiveMPEC\logs\tmp1ikzjhto.cplex.log' open.
CPLEX> New value for parallel optimization mode: -1
CPLEX> New value for mixed integer optimality gap tolerance: 0.05
CPLEX> New value for deterministic time limit in ticks: 100000
CPLEX> Problem 'C:\Users\wenmi\Desktop\competitiveMPEC\logs\tmp0guvy1x2.pyomo.lp' read.
Read time = 0.14 sec. (14.52 ticks)
CPLEX> MIP start file 'C:\Users\wenmi\Desktop\competitiveMPEC\logs\tmp902hh_60.cplex.mst' read.
CPLEX> Problem name         : C:\Users\wenmi\Desktop\competitiveMPEC\logs\tmp0guvy1x2.pyomo.lp
Objective sense      : Maximize
Variables            :   54523  [Nneg: 1,  Box: 22718,  Free: 4464,
                                 Binary: 27340]
Objective nonzeros   :    9784
Linear constraints   :  123205  [Less: 41346,  Greater: 59096,  Equal: 22763]
  Nonzeros           :  289292
  RHS nonzeros       :   67476

Variables            : Min LB: -5000.000        Max UB: 1000000.       
Objective nonzeros   : Min   : 0.1000000        Max   : 2500.000       
Linear constraints   :
  Nonzeros           : Min   : 0.1000000        Max   : 1000000.       
  RHS nonzeros       : Min   : 0.1000000        Max   : 1000000.       
CPLEX> Version identifier: 12.10.0.0 | 2019-11-26 | 843d4de2ae
CPXPARAM_Parallel                                -1
CPXPARAM_DetTimeLimit                            100000
CPXPARAM_MIP_Tolerances_MIPGap                   0.050000000000000003
Warning:  No solution found from 1 MIP starts.
Retaining values of one MIP start for possible repair.
Tried aggregator 3 times.
MIP Presolve eliminated 88757 rows and 19789 columns.
MIP Presolve added 3385 rows and 0 columns.
MIP Presolve modified 24786 coefficients.
Aggregator did 12993 substitutions.
Reduced MIP has 24840 rows, 21175 columns, and 68358 nonzeros.
Reduced MIP has 8371 binaries, 0 generals, 0 SOSs, and 0 indicators.
Presolve time = 0.16 sec. (169.10 ticks)
Probing fixed 403 vars, tightened 3843 bounds.
Probing time = 0.03 sec. (17.54 ticks)
Tried aggregator 2 times.
Detecting symmetries...
MIP Presolve eliminated 909 rows and 807 columns.
MIP Presolve modified 3140 coefficients.
Aggregator did 24 substitutions.
Reduced MIP has 23907 rows, 20344 columns, and 65656 nonzeros.
Reduced MIP has 7968 binaries, 0 generals, 0 SOSs, and 0 indicators.
Presolve time = 0.06 sec. (90.77 ticks)
Probing fixed 0 vars, tightened 292 bounds.
Probing time = 0.08 sec. (21.27 ticks)
Clique table members: 44297.
MIP emphasis: balance optimality and feasibility.
MIP search method: dynamic search.
Parallel mode: opportunistic, using up to 16 threads.
Root relaxation solution time = 0.30 sec. (625.38 ticks)

        Nodes                                         Cuts/
   Node  Left     Objective  IInf  Best Integer    Best Bound    ItCnt     Gap

      0     0    60056.7294   125                  60056.7294     5800         
      0     0    59945.8686   125                    Cuts: 50     5853         
      0     0    59796.9101   125                    Cuts: 33     5885         
      0     0    59533.9988   125                    Cuts: 36     5923         
      0     0    58077.9386   125                    Cuts: 35     5971         
      0     0    57734.4251   125                    Cuts: 28     5989         
      0     0    57603.6848   125                    Cuts: 27     6006         
      0     0    57603.6848   125                    Cuts: 20     6011         
      0     0    57353.7468   125                     Cuts: 6     6025         
      0     0    57353.7468   125                    Cuts: 24     6034         
Repair heuristic found nothing.
      0    10    37575.8448    40                  57288.2912     6247         
Elapsed time = 4.94 sec. (3584.97 ticks, tree = 0.02 MB, solutions = 0)
    288   150     8029.3528    25                  56942.1713     9515         
    538   326    infeasible                        56942.1713    13853         
    804   357    56582.3494    38                  56942.1713    15473         
*   887   460      integral     0    54030.5413    56942.1315    19105    5.39%
   1017   501    43774.7378    36    54030.5413    56942.1315    21122    5.39%

Cover cuts applied:  8
Implied bound cuts applied:  3
Flow cuts applied:  88
Mixed integer rounding cuts applied:  12
Gomory fractional cuts applied:  2

Root node processing (before b&c):
  Real time             =    4.50 sec. (3544.45 ticks)
Parallel b&c, 16 threads:
  Real time             =    3.61 sec. (1111.08 ticks)
  Sync time (average)   =    0.30 sec.
  Wait time (average)   =    0.00 sec.
                          ------------
Total (root+branch&cut) =    8.11 sec. (4655.53 ticks)

Solution pool: 1 solution saved.

MIP - Integer optimal, tolerance (0.05/1e-06):  Objective =  5.4030541310e+04
Current MIP best bound =  5.6598132769e+04 (gap = 2567.59, 4.75%)
Solution time =    8.11 sec.  Iterations = 24217  Nodes = 1018 (93)
Deterministic time = 4655.69 ticks  (574.14 ticks/sec)

CPLEX> Incumbent solution written to file 'C:\Users\wenmi\Desktop\competitiveMPEC\logs\tmpcol_7ogi.cplex.sol'.
CPLEX> Exporting results... 
